(set-info :smt-lib-version 2.6)
(set-logic QF_IDL)
(declare-fun s1_1 () Int)
(declare-fun s1_2 () Int)
(declare-fun s2_1 () Int)
(declare-fun s2_2 () Int)
(declare-fun m1_1 () Int)
(declare-fun m1_2 () Int)
(declare-fun m2_1 () Int)
(declare-fun m2_2 () Int)
(declare-fun ref () Int)
(assert (and
(<= (- m1_1 ref) 0)
(>= (- m1_1 ref) 0)
(<= (- m1_2 ref) 0)
(>= (- m1_2 ref) 0)
(<= (- m2_1 ref) 0)
(>= (- m2_1 ref) 0)
(<= (- m2_2 ref) 0)
(>= (- m2_2 ref) 0)

(>= (- s1_1 ref) 0)
(>= (- s2_1 ref) 0)

(<= (- s1_2 ref) 9)
(<= (- s2_2 ref) 9)

(>= (- s1_2 s1_1) 3)
(>= (- s2_2 s2_1) 2)

(or (not (= (- m1_1 m2_1) 0)) (>= (- s1_1 s2_1) 2) (>= (- s2_1 s1_1) 3)) 
(or (not (= (- m1_1 m2_2) 0)) (>= (- s1_1 s2_2) 3) (>= (- s2_2 s1_1) 3)) 
(or (not (= (- m1_2 m2_1) 0)) (>= (- s1_2 s2_1) 2) (>= (- s2_1 s1_2) 3)) 
(or (not (= (- m1_2 m2_2) 0)) (>= (- s1_2 s2_2) 3) (>= (- s2_2 s1_2) 3)) 
))
(check-sat)
(exit)
